50 10081

127
145
128
60
129
460
240
247
374
383
166
345
323
446
94
377
228
162
355
395
440
262
83
226
364
407
178
141
298
57
459
138
378
241
125
166
13
292
180
476
332
342
4
311
390
406
271
234
107
97
